c A SAT instance generated from a 3-CNF formula that had 33 clauses and 11 variables
p cnf 11 33
11 4 -3 0
8 2 -3 0
4 -6 5 0
-5 8 -4 0
4 -5 -3 0
7 -4 -2 0
-3 1 -11 0
1 11 -10 0
-1 -4 10 0
-6 -8 10 0
7 11 2 0
8 11 10 0
11 -2 5 0
5 6 -10 0
7 2 -1 0
10 1 3 0
5 6 -2 0
-6 -9 10 0
-9 -5 -7 0
-5 -8 9 0
5 -7 -8 0
7 -4 6 0
-5 9 -11 0
-7 1 3 0
10 4 -7 0
11 7 -2 0
-10 -8 4 0
-4 6 9 0
3 -6 -8 0
-6 4 -7 0
9 -1 7 0
7 5 -6 0
9 11 -5 0
